Welcome to the CBC MILP Solver 
Version: 2.10.12 
Build Date: Aug 20 2024 

command line - /opt/homebrew/bin/cbc computational_data/real_data/lp/iris_trial_004.lp seconds 10.0 solve solu computational_data/real_data/solutions/iris_trial_004.sol (default strategy 1)
seconds was changed from 1e+100 to 10
Continuous objective value is 5.55 - 0.00 seconds
Cgl0003I 0 fixed, 0 tightened bounds, 90 strengthened rows, 0 substitutions
Cgl0003I 0 fixed, 0 tightened bounds, 102 strengthened rows, 0 substitutions
Cgl0003I 0 fixed, 0 tightened bounds, 100 strengthened rows, 0 substitutions
Cgl0003I 0 fixed, 0 tightened bounds, 87 strengthened rows, 0 substitutions
Cgl0003I 0 fixed, 0 tightened bounds, 70 strengthened rows, 0 substitutions
Cgl0003I 0 fixed, 0 tightened bounds, 41 strengthened rows, 0 substitutions
Cgl0003I 0 fixed, 0 tightened bounds, 25 strengthened rows, 0 substitutions
Cgl0003I 0 fixed, 0 tightened bounds, 20 strengthened rows, 0 substitutions
Cgl0003I 0 fixed, 0 tightened bounds, 13 strengthened rows, 0 substitutions
Cgl0004I processed model has 89 rows, 33 columns (33 integer (32 of which binary)) and 656 elements
Cutoff increment increased from 1e-05 to 0.9999
Cbc0038I Initial state - 32 integers unsatisfied sum - 3.55
Cbc0038I Pass   1: suminf.    3.55000 (32) obj. 5.55 iterations 0
Cbc0038I Pass   2: suminf.    0.00000 (0) obj. 6 iterations 35
Cbc0038I Solution found of 6
Cbc0038I Cleaned solution of 6
Cbc0038I Before mini branch and bound, 1 integers at bound fixed and 0 continuous
Cbc0038I Mini branch and bound did not improve solution (0.01 seconds)
Cbc0038I After 0.01 seconds - Feasibility pump exiting with objective of 6 - took 0.00 seconds
Cbc0012I Integer solution of 6 found by feasibility pump after 0 iterations and 0 nodes (0.01 seconds)
Cbc0001I Search completed - best objective 6, took 0 iterations and 0 nodes (0.01 seconds)
Cbc0035I Maximum depth 0, 0 variables fixed on reduced cost
Cuts at root node changed objective from 5.55 to 5.55
Probing was tried 0 times and created 0 cuts of which 0 were active after adding rounds of cuts (0.000 seconds)
Gomory was tried 0 times and created 0 cuts of which 0 were active after adding rounds of cuts (0.000 seconds)
Knapsack was tried 0 times and created 0 cuts of which 0 were active after adding rounds of cuts (0.000 seconds)
Clique was tried 0 times and created 0 cuts of which 0 were active after adding rounds of cuts (0.000 seconds)
MixedIntegerRounding2 was tried 0 times and created 0 cuts of which 0 were active after adding rounds of cuts (0.000 seconds)
FlowCover was tried 0 times and created 0 cuts of which 0 were active after adding rounds of cuts (0.000 seconds)
TwoMirCuts was tried 0 times and created 0 cuts of which 0 were active after adding rounds of cuts (0.000 seconds)
ZeroHalf was tried 0 times and created 0 cuts of which 0 were active after adding rounds of cuts (0.000 seconds)

Result - Optimal solution found

Objective value:                6.00000000
Enumerated nodes:               0
Total iterations:               0
Time (CPU seconds):             0.01
Time (Wallclock seconds):       0.01

Total time (CPU seconds):       0.01   (Wallclock seconds):       0.01

